NAME          DCAP_2_4_3_200_SS91
ROWS
 N  OBJ
 L  CON1
 L  CON2
 L  CON3
 L  CON4
 L  CON5
 L  CON6
 L  CON7
 L  CON8
 L  CON9
 L  CON10
 L  CON11
 L  CON12
 E  CON13
 E  CON14
 E  CON15
 E  CON16
 E  CON17
 E  CON18
 E  CON19
 E  CON20
 E  CON21
 E  CON22
 E  CON23
 E  CON24
COLUMNS
    x[1,1]    OBJ       6.180167      CON1      1.000000    
    x[1,1]    CON7      -1.000000     CON8      -1.000000   
    x[1,1]    CON9      -1.000000   
    x[1,2]    OBJ       6.563535      CON2      1.000000    
    x[1,2]    CON8      -1.000000     CON9      -1.000000   
    x[1,3]    OBJ       7.443064      CON3      1.000000    
    x[1,3]    CON9      -1.000000   
    x[2,1]    OBJ       6.732585      CON4      1.000000    
    x[2,1]    CON10     -1.000000     CON11     -1.000000   
    x[2,1]    CON12     -1.000000   
    x[2,2]    OBJ       5.039546      CON5      1.000000    
    x[2,2]    CON11     -1.000000     CON12     -1.000000   
    x[2,3]    OBJ       6.054841      CON6      1.000000    
    x[2,3]    CON12     -1.000000   
    MARKER    'MARKER'                'INTORG'
    u[1,1]    OBJ       48.076654     CON1      -1.000000   
    u[1,2]    OBJ       20.066487     CON2      -1.000000   
    u[1,3]    OBJ       32.230043     CON3      -1.000000   
    u[2,1]    OBJ       49.996186     CON4      -1.000000   
    u[2,2]    OBJ       49.466655     CON5      -1.000000   
    u[2,3]    OBJ       27.484319     CON6      -1.000000   
    y[1,1,1]  OBJ       8.505125      CON7      1.474073    
    y[1,1,1]  CON13     1.000000    
    y[1,1,2]  OBJ       9.194784      CON8      0.873020    
    y[1,1,2]  CON14     1.000000    
    y[1,1,3]  OBJ       7.924355      CON9      1.094213    
    y[1,1,3]  CON15     1.000000    
    y[1,2,1]  OBJ       6.685324      CON7      0.702911    
    y[1,2,1]  CON16     1.000000    
    y[1,2,2]  OBJ       9.642300      CON8      1.230893    
    y[1,2,2]  CON17     1.000000    
    y[1,2,3]  OBJ       8.323764      CON9      0.752363    
    y[1,2,3]  CON18     1.000000    
    y[1,3,1]  OBJ       9.756239      CON7      1.079878    
    y[1,3,1]  CON19     1.000000    
    y[1,3,2]  OBJ       7.342979      CON8      0.835136    
    y[1,3,2]  CON20     1.000000    
    y[1,3,3]  OBJ       8.486190      CON9      0.811339    
    y[1,3,3]  CON21     1.000000    
    y[1,4,1]  OBJ       9.495400      CON7      0.903602    
    y[1,4,1]  CON22     1.000000    
    y[1,4,2]  OBJ       6.178378      CON8      1.014661    
    y[1,4,2]  CON23     1.000000    
    y[1,4,3]  OBJ       6.269832      CON9      0.591288    
    y[1,4,3]  CON24     1.000000    
    y[2,1,1]  OBJ       8.458474      CON10     1.474073    
    y[2,1,1]  CON13     1.000000    
    y[2,1,2]  OBJ       7.987135      CON11     0.873020    
    y[2,1,2]  CON14     1.000000    
    y[2,1,3]  OBJ       8.236627      CON12     1.094213    
    y[2,1,3]  CON15     1.000000    
    y[2,2,1]  OBJ       6.540189      CON10     0.702911    
    y[2,2,1]  CON16     1.000000    
    y[2,2,2]  OBJ       7.938165      CON11     1.230893    
    y[2,2,2]  CON17     1.000000    
    y[2,2,3]  OBJ       9.243608      CON12     0.752363    
    y[2,2,3]  CON18     1.000000    
    y[2,3,1]  OBJ       5.157941      CON10     1.079878    
    y[2,3,1]  CON19     1.000000    
    y[2,3,2]  OBJ       8.277255      CON11     0.835136    
    y[2,3,2]  CON20     1.000000    
    y[2,3,3]  OBJ       9.417305      CON12     0.811339    
    y[2,3,3]  CON21     1.000000    
    y[2,4,1]  OBJ       8.129740      CON10     0.903602    
    y[2,4,1]  CON22     1.000000    
    y[2,4,2]  OBJ       9.040156      CON11     1.014661    
    y[2,4,2]  CON23     1.000000    
    y[2,4,3]  OBJ       8.689908      CON12     0.591288    
    y[2,4,3]  CON24     1.000000    
    z[1,1]    OBJ       767.083407    CON13     1.000000    
    z[1,2]    OBJ       500.960735    CON14     1.000000    
    z[1,3]    OBJ       991.933272    CON15     1.000000    
    z[2,1]    OBJ       699.607931    CON16     1.000000    
    z[2,2]    OBJ       860.285173    CON17     1.000000    
    z[2,3]    OBJ       762.058878    CON18     1.000000    
    z[3,1]    OBJ       875.137419    CON19     1.000000    
    z[3,2]    OBJ       509.220562    CON20     1.000000    
    z[3,3]    OBJ       552.549048    CON21     1.000000    
    z[4,1]    OBJ       887.637300    CON22     1.000000    
    z[4,2]    OBJ       661.906037    CON23     1.000000    
    z[4,3]    OBJ       636.155219    CON24     1.000000    
    MARKER    'MARKER'                 'INTEND'
RHS
    RHS       CON1      -0.000000     CON2      -0.000000   
    RHS       CON3      -0.000000     CON4      -0.000000   
    RHS       CON5      -0.000000     CON6      -0.000000   
    RHS       CON7      -0.000000     CON8      -0.000000   
    RHS       CON9      -0.000000     CON10     -0.000000   
    RHS       CON11     -0.000000     CON12     -0.000000   
    RHS       CON13     1.000000      CON14     1.000000    
    RHS       CON15     1.000000      CON16     1.000000    
    RHS       CON17     1.000000      CON18     1.000000    
    RHS       CON19     1.000000      CON20     1.000000    
    RHS       CON21     1.000000      CON22     1.000000    
    RHS       CON23     1.000000      CON24     1.000000    
BOUNDS
 BV BOUND     u[1,1]  
 BV BOUND     u[1,2]  
 BV BOUND     u[1,3]  
 BV BOUND     u[2,1]  
 BV BOUND     u[2,2]  
 BV BOUND     u[2,3]  
 BV BOUND     y[1,1,1]
 BV BOUND     y[1,1,2]
 BV BOUND     y[1,1,3]
 BV BOUND     y[1,2,1]
 BV BOUND     y[1,2,2]
 BV BOUND     y[1,2,3]
 BV BOUND     y[1,3,1]
 BV BOUND     y[1,3,2]
 BV BOUND     y[1,3,3]
 BV BOUND     y[1,4,1]
 BV BOUND     y[1,4,2]
 BV BOUND     y[1,4,3]
 BV BOUND     y[2,1,1]
 BV BOUND     y[2,1,2]
 BV BOUND     y[2,1,3]
 BV BOUND     y[2,2,1]
 BV BOUND     y[2,2,2]
 BV BOUND     y[2,2,3]
 BV BOUND     y[2,3,1]
 BV BOUND     y[2,3,2]
 BV BOUND     y[2,3,3]
 BV BOUND     y[2,4,1]
 BV BOUND     y[2,4,2]
 BV BOUND     y[2,4,3]
 BV BOUND     z[1,1]  
 BV BOUND     z[1,2]  
 BV BOUND     z[1,3]  
 BV BOUND     z[2,1]  
 BV BOUND     z[2,2]  
 BV BOUND     z[2,3]  
 BV BOUND     z[3,1]  
 BV BOUND     z[3,2]  
 BV BOUND     z[3,3]  
 BV BOUND     z[4,1]  
 BV BOUND     z[4,2]  
 BV BOUND     z[4,3]  
ENDATA
